Route 1: 93 67 63 74 62 72 61 64 66 69 68 65 49 55 54 53 56 58 60 59 57 40 44 46 52 42 45 51 50 47 43 41 48 21 8
Route 2: 5 22 30 29 27 24 20 6 32 33 34 36 31 35 37 38 39 28 26 23 18 12 25 19 16 14 15 17 13 9 11 10 90 96
Route 3: 75 2 1 99 100 97 92 94 95 98 7 3 4 89 88 91 84 83 86 82 85 76 71 70 73 80 79 81 78 77 87
Vehicles: 3
Distance: 759.66
